p cnf 968 2487
51 -701 -1 0
-51 701 0
-51 1 0
52 -51 -3 0
-52 51 0
-52 3 0
53 -702 -4 0
-53 702 0
-53 4 0
54 -53 -703 0
-54 53 0
-54 703 0
55 -704 -705 0
-55 704 0
-55 705 0
56 -706 -7 0
-56 706 0
-56 7 0
57 -56 -707 0
-57 56 0
-57 707 0
58 -708 -55 0
-58 708 0
-58 55 0
59 -709 -10 0
-59 709 0
-59 10 0
60 -59 -710 0
-60 59 0
-60 710 0
61 -711 -58 0
-61 711 0
-61 58 0
62 -712 -13 0
-62 712 0
-62 13 0
63 -62 -713 0
-63 62 0
-63 713 0
64 -714 -61 0
-64 714 0
-64 61 0
65 -715 -16 0
-65 715 0
-65 16 0
66 -65 -702 0
-66 65 0
-66 702 0
67 -716 -64 0
-67 716 0
-67 64 0
68 -19 -18 0
-68 19 0
-68 18 0
69 -68 -710 0
-69 68 0
-69 710 0
70 -717 -67 0
-70 717 0
-70 67 0
71 -718 -5 0
-71 718 0
-71 5 0
72 -71 -21 0
-72 71 0
-72 21 0
73 -719 -70 0
-73 719 0
-73 70 0
74 -22 -20 0
-74 22 0
-74 20 0
75 -74 -720 0
-75 74 0
-75 720 0
76 -721 -73 0
-76 721 0
-76 73 0
77 -722 -24 0
-77 722 0
-77 24 0
78 -77 -10 0
-78 77 0
-78 10 0
79 -723 -76 0
-79 723 0
-79 76 0
80 -724 -10 0
-80 724 0
-80 10 0
81 -80 -26 0
-81 80 0
-81 26 0
82 -725 -79 0
-82 725 0
-82 79 0
83 -707 -706 0
-83 707 0
-83 706 0
84 -83 -726 0
-84 83 0
-84 726 0
85 -727 -82 0
-85 727 0
-85 82 0
86 -24 -14 0
-86 24 0
-86 14 0
87 -86 -28 0
-87 86 0
-87 28 0
88 -728 -85 0
-88 728 0
-88 85 0
89 -729 -1 0
-89 729 0
-89 1 0
90 -89 -730 0
-90 89 0
-90 730 0
91 -731 -88 0
-91 731 0
-91 88 0
92 -17 -8 0
-92 17 0
-92 8 0
93 -92 -732 0
-93 92 0
-93 732 0
94 -733 -91 0
-94 733 0
-94 91 0
95 -31 -30 0
-95 31 0
-95 30 0
96 -95 -726 0
-96 95 0
-96 726 0
97 -734 -94 0
-97 734 0
-97 94 0
98 -735 -17 0
-98 735 0
-98 17 0
99 -98 -20 0
-99 98 0
-99 20 0
100 -736 -97 0
-100 736 0
-100 97 0
101 -737 -722 0
-101 737 0
-101 722 0
102 -101 -738 0
-102 101 0
-102 738 0
103 -739 -100 0
-103 739 0
-103 100 0
104 -35 -740 0
-104 35 0
-104 740 0
105 -104 -741 0
-105 104 0
-105 741 0
106 -742 -103 0
-106 742 0
-106 103 0
107 -36 -17 0
-107 36 0
-107 17 0
108 -107 -14 0
-108 107 0
-108 14 0
109 -743 -106 0
-109 743 0
-109 106 0
110 -710 -732 0
-110 710 0
-110 732 0
111 -110 -744 0
-111 110 0
-111 744 0
112 -745 -109 0
-112 745 0
-112 109 0
113 -746 -13 0
-113 746 0
-113 13 0
114 -113 -713 0
-114 113 0
-114 713 0
115 -747 -112 0
-115 747 0
-115 112 0
116 -33 -748 0
-116 33 0
-116 748 0
117 -116 -749 0
-117 116 0
-117 749 0
118 -750 -115 0
-118 750 0
-118 115 0
119 -36 -748 0
-119 36 0
-119 748 0
120 -119 -27 0
-120 119 0
-120 27 0
121 -751 -118 0
-121 751 0
-121 118 0
122 -7 -702 0
-122 7 0
-122 702 0
123 -122 -752 0
-123 122 0
-123 752 0
124 -753 -121 0
-124 753 0
-124 121 0
125 -735 -754 0
-125 735 0
-125 754 0
126 -125 -755 0
-126 125 0
-126 755 0
127 -756 -124 0
-127 756 0
-127 124 0
128 -33 -757 0
-128 33 0
-128 757 0
129 -128 -34 0
-129 128 0
-129 34 0
130 -758 -127 0
-130 758 0
-130 127 0
131 -40 -724 0
-131 40 0
-131 724 0
132 -131 -755 0
-132 131 0
-132 755 0
133 -759 -130 0
-133 759 0
-133 130 0
134 -748 -17 0
-134 748 0
-134 17 0
135 -134 -20 0
-135 134 0
-135 20 0
136 -760 -133 0
-136 760 0
-136 133 0
137 -761 -729 0
-137 761 0
-137 729 0
138 -137 -41 0
-138 137 0
-138 41 0
139 -762 -136 0
-139 762 0
-139 136 0
140 -42 -722 0
-140 42 0
-140 722 0
141 -140 -14 0
-141 140 0
-141 14 0
142 -763 -139 0
-142 763 0
-142 139 0
143 -724 -754 0
-143 724 0
-143 754 0
144 -143 -764 0
-144 143 0
-144 764 0
145 -765 -142 0
-145 765 0
-145 142 0
146 -766 -767 0
-146 766 0
-146 767 0
147 -146 -755 0
-147 146 0
-147 755 0
148 -768 -145 0
-148 768 0
-148 145 0
149 -769 -767 0
-149 769 0
-149 767 0
150 -149 -770 0
-150 149 0
-150 770 0
151 -771 -148 0
-151 771 0
-151 148 0
152 -767 -710 0
-152 767 0
-152 710 0
153 -152 -755 0
-153 152 0
-153 755 0
154 -772 -151 0
-154 772 0
-154 151 0
155 -16 -8 0
-155 16 0
-155 8 0
156 -155 -31 0
-156 155 0
-156 31 0
157 -773 -154 0
-157 773 0
-157 154 0
158 -20 -2 0
-158 20 0
-158 2 0
159 -158 -27 0
-159 158 0
-159 27 0
160 -774 -157 0
-160 774 0
-160 157 0
161 -12 -702 0
-161 12 0
-161 702 0
162 -161 -35 0
-162 161 0
-162 35 0
163 -775 -160 0
-163 775 0
-163 160 0
164 -42 -18 0
-164 42 0
-164 18 0
165 -164 -776 0
-165 164 0
-165 776 0
166 -777 -163 0
-166 777 0
-166 163 0
167 -44 -16 0
-167 44 0
-167 16 0
168 -167 -778 0
-168 167 0
-168 778 0
169 -779 -166 0
-169 779 0
-169 166 0
170 -755 -4 0
-170 755 0
-170 4 0
171 -170 -741 0
-171 170 0
-171 741 0
172 -780 -169 0
-172 780 0
-172 169 0
173 -781 -703 0
-173 781 0
-173 703 0
174 -173 -782 0
-174 173 0
-174 782 0
175 -783 -172 0
-175 783 0
-175 172 0
176 -748 -702 0
-176 748 0
-176 702 0
177 -176 -784 0
-177 176 0
-177 784 0
178 -785 -175 0
-178 785 0
-178 175 0
179 -24 -718 0
-179 24 0
-179 718 0
180 -179 -28 0
-180 179 0
-180 28 0
181 -786 -178 0
-181 786 0
-181 178 0
182 -31 -23 0
-182 31 0
-182 23 0
183 -182 -744 0
-183 182 0
-183 744 0
184 -787 -181 0
-184 787 0
-184 181 0
185 -39 -767 0
-185 39 0
-185 767 0
186 -185 -27 0
-186 185 0
-186 27 0
187 -788 -184 0
-187 788 0
-187 184 0
188 -33 -1 0
-188 33 0
-188 1 0
189 -188 -713 0
-189 188 0
-189 713 0
190 -789 -187 0
-190 789 0
-190 187 0
191 -790 -30 0
-191 790 0
-191 30 0
192 -191 -21 0
-192 191 0
-192 21 0
193 -791 -190 0
-193 791 0
-193 190 0
194 -792 -41 0
-194 792 0
-194 41 0
195 -194 -15 0
-195 194 0
-195 15 0
196 -793 -193 0
-196 793 0
-196 193 0
197 -41 -737 0
-197 41 0
-197 737 0
198 -197 -720 0
-198 197 0
-198 720 0
199 -794 -196 0
-199 794 0
-199 196 0
200 -48 -795 0
-200 48 0
-200 795 0
201 -200 -46 0
-201 200 0
-201 46 0
202 -796 -199 0
-202 796 0
-202 199 0
203 -36 -19 0
-203 36 0
-203 19 0
204 -203 -35 0
-204 203 0
-204 35 0
205 -797 -202 0
-205 797 0
-205 202 0
206 -748 -12 0
-206 748 0
-206 12 0
207 -206 -27 0
-207 206 0
-207 27 0
208 -798 -205 0
-208 798 0
-208 205 0
209 -748 -724 0
-209 748 0
-209 724 0
210 -209 -737 0
-210 209 0
-210 737 0
211 -799 -208 0
-211 799 0
-211 208 0
212 -752 -24 0
-212 752 0
-212 24 0
213 -212 -800 0
-213 212 0
-213 800 0
214 -801 -211 0
-214 801 0
-214 211 0
215 -37 -1 0
-215 37 0
-215 1 0
216 -215 -730 0
-216 215 0
-216 730 0
217 -802 -214 0
-217 802 0
-217 214 0
218 -781 -737 0
-218 781 0
-218 737 0
219 -218 -38 0
-219 218 0
-219 38 0
220 -803 -217 0
-220 803 0
-220 217 0
221 -722 -16 0
-221 722 0
-221 16 0
222 -221 -795 0
-222 221 0
-222 795 0
223 -804 -220 0
-223 804 0
-223 220 0
224 -47 -805 0
-224 47 0
-224 805 0
225 -224 -806 0
-225 224 0
-225 806 0
226 -807 -223 0
-226 807 0
-226 223 0
227 -769 -735 0
-227 769 0
-227 735 0
228 -227 -21 0
-228 227 0
-228 21 0
229 -808 -226 0
-229 808 0
-229 226 0
230 -45 -715 0
-230 45 0
-230 715 0
231 -230 -701 0
-231 230 0
-231 701 0
232 -809 -229 0
-232 809 0
-232 229 0
233 -32 -720 0
-233 32 0
-233 720 0
234 -233 -46 0
-234 233 0
-234 46 0
235 -810 -232 0
-235 810 0
-235 232 0
236 -790 -715 0
-236 790 0
-236 715 0
237 -236 -792 0
-237 236 0
-237 792 0
238 -811 -235 0
-238 811 0
-238 235 0
239 -746 -36 0
-239 746 0
-239 36 0
240 -239 -778 0
-240 239 0
-240 778 0
241 -812 -238 0
-241 812 0
-241 238 0
242 -744 -1 0
-242 744 0
-242 1 0
243 -242 -46 0
-243 242 0
-243 46 0
244 -813 -241 0
-244 813 0
-244 241 0
245 -20 -706 0
-245 20 0
-245 706 0
246 -245 -12 0
-246 245 0
-246 12 0
247 -814 -244 0
-247 814 0
-247 244 0
248 -22 -701 0
-248 22 0
-248 701 0
249 -248 -35 0
-249 248 0
-249 35 0
250 -815 -247 0
-250 815 0
-250 247 0
251 -22 -11 0
-251 22 0
-251 11 0
252 -251 -776 0
-252 251 0
-252 776 0
253 -816 -250 0
-253 816 0
-253 250 0
254 -48 -24 0
-254 48 0
-254 24 0
255 -254 -744 0
-255 254 0
-255 744 0
256 -817 -253 0
-256 817 0
-256 253 0
257 -766 -761 0
-257 766 0
-257 761 0
258 -257 -9 0
-258 257 0
-258 9 0
259 -818 -256 0
-259 818 0
-259 256 0
260 -43 -36 0
-260 43 0
-260 36 0
261 -260 -744 0
-261 260 0
-261 744 0
262 -819 -259 0
-262 819 0
-262 259 0
263 -24 -5 0
-263 24 0
-263 5 0
264 -263 -36 0
-264 263 0
-264 36 0
265 -820 -262 0
-265 820 0
-265 262 0
266 -47 -752 0
-266 47 0
-266 752 0
267 -266 -15 0
-267 266 0
-267 15 0
268 -821 -265 0
-268 821 0
-268 265 0
269 -702 -1 0
-269 702 0
-269 1 0
270 -269 -737 0
-270 269 0
-270 737 0
271 -822 -268 0
-271 822 0
-271 268 0
272 -33 -22 0
-272 33 0
-272 22 0
273 -272 -712 0
-273 272 0
-273 712 0
274 -823 -271 0
-274 823 0
-274 271 0
275 -724 -8 0
-275 724 0
-275 8 0
276 -275 -720 0
-276 275 0
-276 720 0
277 -824 -274 0
-277 824 0
-277 274 0
278 -825 -737 0
-278 825 0
-278 737 0
279 -278 -38 0
-279 278 0
-279 38 0
280 -826 -277 0
-280 826 0
-280 277 0
281 -827 -781 0
-281 827 0
-281 781 0
282 -281 -726 0
-282 281 0
-282 726 0
283 -828 -280 0
-283 828 0
-283 280 0
284 -45 -14 0
-284 45 0
-284 14 0
285 -284 -755 0
-285 284 0
-285 755 0
286 -829 -283 0
-286 829 0
-286 283 0
287 -792 -746 0
-287 792 0
-287 746 0
288 -287 -737 0
-288 287 0
-288 737 0
289 -830 -286 0
-289 830 0
-289 286 0
290 -36 -735 0
-290 36 0
-290 735 0
291 -290 -781 0
-291 290 0
-291 781 0
292 -831 -289 0
-292 831 0
-292 289 0
293 -25 -712 0
-293 25 0
-293 712 0
294 -293 -782 0
-294 293 0
-294 782 0
295 -832 -292 0
-295 832 0
-295 292 0
296 -37 -718 0
-296 37 0
-296 718 0
297 -296 -49 0
-297 296 0
-297 49 0
298 -833 -295 0
-298 833 0
-298 295 0
299 -737 -15 0
-299 737 0
-299 15 0
300 -299 -764 0
-300 299 0
-300 764 0
301 -834 -298 0
-301 834 0
-301 298 0
302 -729 -5 0
-302 729 0
-302 5 0
303 -302 -10 0
-303 302 0
-303 10 0
304 -835 -301 0
-304 835 0
-304 301 0
305 -730 -709 0
-305 730 0
-305 709 0
306 -305 -827 0
-306 305 0
-306 827 0
307 -836 -304 0
-307 836 0
-307 304 0
308 -50 -825 0
-308 50 0
-308 825 0
309 -308 -782 0
-309 308 0
-309 782 0
310 -837 -307 0
-310 837 0
-310 307 0
311 -795 -13 0
-311 795 0
-311 13 0
312 -311 -50 0
-312 311 0
-312 50 0
313 -838 -310 0
-313 838 0
-313 310 0
314 -26 -795 0
-314 26 0
-314 795 0
315 -314 -27 0
-315 314 0
-315 27 0
316 -839 -313 0
-316 839 0
-316 313 0
317 -37 -730 0
-317 37 0
-317 730 0
318 -317 -782 0
-318 317 0
-318 782 0
319 -840 -316 0
-319 840 0
-319 316 0
320 -47 -790 0
-320 47 0
-320 790 0
321 -320 -12 0
-321 320 0
-321 12 0
322 -841 -319 0
-322 841 0
-322 319 0
323 -31 -722 0
-323 31 0
-323 722 0
324 -323 -738 0
-324 323 0
-324 738 0
325 -842 -322 0
-325 842 0
-325 322 0
326 -37 -10 0
-326 37 0
-326 10 0
327 -326 -2 0
-327 326 0
-327 2 0
328 -843 -325 0
-328 843 0
-328 325 0
329 -748 -715 0
-329 748 0
-329 715 0
330 -329 -752 0
-330 329 0
-330 752 0
331 -844 -328 0
-331 844 0
-331 328 0
332 -792 -17 0
-332 792 0
-332 17 0
333 -332 -741 0
-333 332 0
-333 741 0
334 -845 -331 0
-334 845 0
-334 331 0
335 -49 -25 0
-335 49 0
-335 25 0
336 -335 -45 0
-336 335 0
-336 45 0
337 -846 -334 0
-337 846 0
-337 334 0
338 -825 -19 0
-338 825 0
-338 19 0
339 -338 -6 0
-339 338 0
-339 6 0
340 -847 -337 0
-340 847 0
-340 337 0
341 -24 -805 0
-341 24 0
-341 805 0
342 -341 -712 0
-342 341 0
-342 712 0
343 -848 -340 0
-343 848 0
-343 340 0
344 -790 -39 0
-344 790 0
-344 39 0
345 -344 -827 0
-345 344 0
-345 827 0
346 -849 -343 0
-346 849 0
-346 343 0
347 -39 -30 0
-347 39 0
-347 30 0
348 -347 -712 0
-348 347 0
-348 712 0
349 -850 -346 0
-349 850 0
-349 346 0
350 -709 -757 0
-350 709 0
-350 757 0
351 -350 -46 0
-351 350 0
-351 46 0
352 -851 -349 0
-352 851 0
-352 349 0
353 -825 -757 0
-353 825 0
-353 757 0
354 -353 -3 0
-354 353 0
-354 3 0
355 -852 -352 0
-355 852 0
-355 352 0
356 -10 -8 0
-356 10 0
-356 8 0
357 -356 -741 0
-357 356 0
-357 741 0
358 -853 -355 0
-358 853 0
-358 355 0
359 -767 -706 0
-359 767 0
-359 706 0
360 -359 -782 0
-360 359 0
-360 782 0
361 -854 -358 0
-361 854 0
-361 358 0
362 -720 -16 0
-362 720 0
-362 16 0
363 -362 -46 0
-363 362 0
-363 46 0
364 -855 -361 0
-364 855 0
-364 361 0
365 -778 -767 0
-365 778 0
-365 767 0
366 -365 -31 0
-366 365 0
-366 31 0
367 -856 -364 0
-367 856 0
-367 364 0
368 -47 -19 0
-368 47 0
-368 19 0
369 -368 -825 0
-369 368 0
-369 825 0
370 -857 -367 0
-370 857 0
-370 367 0
371 -37 -8 0
-371 37 0
-371 8 0
372 -371 -39 0
-372 371 0
-372 39 0
373 -858 -370 0
-373 858 0
-373 370 0
374 -30 -724 0
-374 30 0
-374 724 0
375 -374 -749 0
-375 374 0
-375 749 0
376 -859 -373 0
-376 859 0
-376 373 0
377 -37 -7 0
-377 37 0
-377 7 0
378 -377 -13 0
-378 377 0
-378 13 0
379 -860 -376 0
-379 860 0
-379 376 0
380 -42 -33 0
-380 42 0
-380 33 0
381 -380 -12 0
-381 380 0
-381 12 0
382 -861 -379 0
-382 861 0
-382 379 0
383 -42 -25 0
-383 42 0
-383 25 0
384 -383 -755 0
-384 383 0
-384 755 0
385 -862 -382 0
-385 862 0
-385 382 0
386 -25 -4 0
-386 25 0
-386 4 0
387 -386 -730 0
-387 386 0
-387 730 0
388 -863 -385 0
-388 863 0
-388 385 0
389 -24 -754 0
-389 24 0
-389 754 0
390 -389 -730 0
-390 389 0
-390 730 0
391 -864 -388 0
-391 864 0
-391 388 0
392 -47 -37 0
-392 47 0
-392 37 0
393 -392 -45 0
-393 392 0
-393 45 0
394 -865 -391 0
-394 865 0
-394 391 0
395 -769 -40 0
-395 769 0
-395 40 0
396 -395 -770 0
-396 395 0
-396 770 0
397 -866 -394 0
-397 866 0
-397 394 0
398 -735 -757 0
-398 735 0
-398 757 0
399 -398 -738 0
-399 398 0
-399 738 0
400 -867 -397 0
-400 867 0
-400 397 0
401 -792 -715 0
-401 792 0
-401 715 0
402 -401 -710 0
-402 401 0
-402 710 0
403 -868 -400 0
-403 868 0
-403 400 0
404 -33 -702 0
-404 33 0
-404 702 0
405 -404 -26 0
-405 404 0
-405 26 0
406 -869 -403 0
-406 869 0
-406 403 0
407 -781 -9 0
-407 781 0
-407 9 0
408 -407 -720 0
-408 407 0
-408 720 0
409 -870 -406 0
-409 870 0
-409 406 0
410 -33 -735 0
-410 33 0
-410 735 0
411 -410 -21 0
-411 410 0
-411 21 0
412 -871 -409 0
-412 871 0
-412 409 0
413 -729 -12 0
-413 729 0
-413 12 0
414 -413 -738 0
-414 413 0
-414 738 0
415 -872 -412 0
-415 872 0
-415 412 0
416 -746 -805 0
-416 746 0
-416 805 0
417 -416 -30 0
-417 416 0
-417 30 0
418 -873 -415 0
-418 873 0
-418 415 0
419 -37 -24 0
-419 37 0
-419 24 0
420 -419 -30 0
-420 419 0
-420 30 0
421 -874 -418 0
-421 874 0
-421 418 0
422 -44 -36 0
-422 44 0
-422 36 0
423 -422 -738 0
-423 422 0
-423 738 0
424 -875 -421 0
-424 875 0
-424 421 0
425 -737 -23 0
-425 737 0
-425 23 0
426 -425 -800 0
-426 425 0
-426 800 0
427 -876 -424 0
-427 876 0
-427 424 0
428 -48 -715 0
-428 48 0
-428 715 0
429 -428 -740 0
-429 428 0
-429 740 0
430 -877 -427 0
-430 877 0
-430 427 0
431 -39 -1 0
-431 39 0
-431 1 0
432 -431 -45 0
-432 431 0
-432 45 0
433 -878 -430 0
-433 878 0
-433 430 0
434 -43 -19 0
-434 43 0
-434 19 0
435 -434 -701 0
-435 434 0
-435 701 0
436 -879 -433 0
-436 879 0
-436 433 0
437 -47 -6 0
-437 47 0
-437 6 0
438 -437 -3 0
-438 437 0
-438 3 0
439 -880 -436 0
-439 880 0
-439 436 0
440 -718 -748 0
-440 718 0
-440 748 0
441 -440 -825 0
-441 440 0
-441 825 0
442 -881 -439 0
-442 881 0
-442 439 0
443 -44 -6 0
-443 44 0
-443 6 0
444 -443 -713 0
-444 443 0
-444 713 0
445 -882 -442 0
-445 882 0
-445 442 0
446 -23 -8 0
-446 23 0
-446 8 0
447 -446 -800 0
-447 446 0
-447 800 0
448 -883 -445 0
-448 883 0
-448 445 0
449 -24 -17 0
-449 24 0
-449 17 0
450 -449 -2 0
-450 449 0
-450 2 0
451 -884 -448 0
-451 884 0
-451 448 0
452 -16 -767 0
-452 16 0
-452 767 0
453 -452 -770 0
-453 452 0
-453 770 0
454 -885 -451 0
-454 885 0
-454 451 0
455 -724 -11 0
-455 724 0
-455 11 0
456 -455 -776 0
-456 455 0
-456 776 0
457 -886 -454 0
-457 886 0
-457 454 0
458 -744 -8 0
-458 744 0
-458 8 0
459 -458 -28 0
-459 458 0
-459 28 0
460 -887 -457 0
-460 887 0
-460 457 0
461 -805 -2 0
-461 805 0
-461 2 0
462 -461 -21 0
-462 461 0
-462 21 0
463 -888 -460 0
-463 888 0
-463 460 0
464 -805 -701 0
-464 805 0
-464 701 0
465 -464 -23 0
-465 464 0
-465 23 0
466 -889 -463 0
-466 889 0
-466 463 0
467 -720 -712 0
-467 720 0
-467 712 0
468 -467 -21 0
-468 467 0
-468 21 0
469 -890 -466 0
-469 890 0
-469 466 0
470 -293 -778 0
-470 293 0
-470 778 0
471 -891 -469 0
-471 891 0
-471 469 0
472 -45 -712 0
-472 45 0
-472 712 0
473 -472 -23 0
-473 472 0
-473 23 0
474 -892 -471 0
-474 892 0
-474 471 0
475 -149 -45 0
-475 149 0
-475 45 0
476 -893 -474 0
-476 893 0
-476 474 0
477 -766 -4 0
-477 766 0
-477 4 0
478 -477 -776 0
-478 477 0
-478 776 0
479 -894 -476 0
-479 894 0
-479 476 0
480 -766 -781 0
-480 766 0
-480 781 0
481 -480 -738 0
-481 480 0
-481 738 0
482 -895 -479 0
-482 895 0
-482 479 0
483 -735 -30 0
-483 735 0
-483 30 0
484 -483 -726 0
-484 483 0
-484 726 0
485 -896 -482 0
-485 896 0
-485 482 0
486 -16 -5 0
-486 16 0
-486 5 0
487 -486 -39 0
-487 486 0
-487 39 0
488 -897 -485 0
-488 897 0
-488 485 0
489 -18 -5 0
-489 18 0
-489 5 0
490 -489 -769 0
-490 489 0
-490 769 0
491 -898 -488 0
-491 898 0
-491 488 0
492 -19 -701 0
-492 19 0
-492 701 0
493 -492 -23 0
-493 492 0
-493 23 0
494 -899 -491 0
-494 899 0
-494 491 0
495 -790 -730 0
-495 790 0
-495 730 0
496 -495 -744 0
-496 495 0
-496 744 0
497 -900 -494 0
-497 900 0
-497 494 0
498 -37 -25 0
-498 37 0
-498 25 0
499 -498 -5 0
-499 498 0
-499 5 0
500 -901 -497 0
-500 901 0
-500 497 0
501 -770 -701 0
-501 770 0
-501 701 0
502 -501 -12 0
-502 501 0
-502 12 0
503 -902 -500 0
-503 902 0
-503 500 0
504 -769 -746 0
-504 769 0
-504 746 0
505 -504 -800 0
-505 504 0
-505 800 0
506 -903 -503 0
-506 903 0
-506 503 0
507 -749 -720 0
-507 749 0
-507 720 0
508 -507 -27 0
-508 507 0
-508 27 0
509 -904 -506 0
-509 904 0
-509 506 0
510 -44 -11 0
-510 44 0
-510 11 0
511 -510 -730 0
-511 510 0
-511 730 0
512 -905 -509 0
-512 905 0
-512 509 0
513 -44 -18 0
-513 44 0
-513 18 0
514 -513 -827 0
-514 513 0
-514 827 0
515 -906 -512 0
-515 906 0
-515 512 0
516 -25 -20 0
-516 25 0
-516 20 0
517 -516 -23 0
-517 516 0
-517 23 0
518 -907 -515 0
-518 907 0
-518 515 0
519 -29 -805 0
-519 29 0
-519 805 0
520 -519 -15 0
-520 519 0
-520 15 0
521 -908 -518 0
-521 908 0
-521 518 0
522 -761 -701 0
-522 761 0
-522 701 0
523 -522 -800 0
-523 522 0
-523 800 0
524 -909 -521 0
-524 909 0
-524 521 0
525 -40 -776 0
-525 40 0
-525 776 0
526 -525 -744 0
-526 525 0
-526 744 0
527 -910 -524 0
-527 910 0
-527 524 0
528 -729 -6 0
-528 729 0
-528 6 0
529 -528 -749 0
-529 528 0
-529 749 0
530 -911 -527 0
-530 911 0
-530 527 0
531 -825 -722 0
-531 825 0
-531 722 0
532 -531 -45 0
-532 531 0
-532 45 0
533 -912 -530 0
-533 912 0
-533 530 0
534 -50 -761 0
-534 50 0
-534 761 0
535 -534 -23 0
-535 534 0
-535 23 0
536 -913 -533 0
-536 913 0
-536 533 0
537 -42 -22 0
-537 42 0
-537 22 0
538 -537 -46 0
-538 537 0
-538 46 0
539 -914 -536 0
-539 914 0
-539 536 0
540 -22 -702 0
-540 22 0
-540 702 0
541 -540 -730 0
-541 540 0
-541 730 0
542 -915 -539 0
-542 915 0
-542 539 0
543 -40 -19 0
-543 40 0
-543 19 0
544 -543 -39 0
-544 543 0
-544 39 0
545 -916 -542 0
-545 916 0
-545 542 0
546 -795 -715 0
-546 795 0
-546 715 0
547 -546 -770 0
-547 546 0
-547 770 0
548 -917 -545 0
-548 917 0
-548 545 0
549 -806 -18 0
-549 806 0
-549 18 0
550 -549 -795 0
-550 549 0
-550 795 0
551 -918 -548 0
-551 918 0
-551 548 0
552 -38 -24 0
-552 38 0
-552 24 0
553 -552 -26 0
-553 552 0
-553 26 0
554 -919 -551 0
-554 919 0
-554 551 0
555 -48 -43 0
-555 48 0
-555 43 0
556 -555 -741 0
-556 555 0
-556 741 0
557 -920 -554 0
-557 920 0
-557 554 0
558 -784 -703 0
-558 784 0
-558 703 0
559 -558 -15 0
-559 558 0
-559 15 0
560 -921 -557 0
-560 921 0
-560 557 0
561 -19 -11 0
-561 19 0
-561 11 0
562 -561 -726 0
-562 561 0
-562 726 0
563 -922 -560 0
-563 922 0
-563 560 0
564 -137 -39 0
-564 137 0
-564 39 0
565 -923 -563 0
-565 923 0
-565 563 0
566 -47 -769 0
-566 47 0
-566 769 0
567 -566 -737 0
-567 566 0
-567 737 0
568 -924 -565 0
-568 924 0
-568 565 0
569 -37 -724 0
-569 37 0
-569 724 0
570 -569 -8 0
-570 569 0
-570 8 0
571 -925 -568 0
-571 925 0
-571 568 0
572 -43 -724 0
-572 43 0
-572 724 0
573 -572 -720 0
-573 572 0
-573 720 0
574 -926 -571 0
-574 926 0
-574 571 0
575 -42 -7 0
-575 42 0
-575 7 0
576 -575 -26 0
-576 575 0
-576 26 0
577 -927 -574 0
-577 927 0
-577 574 0
578 -784 -713 0
-578 784 0
-578 713 0
579 -578 -38 0
-579 578 0
-579 38 0
580 -928 -577 0
-580 928 0
-580 577 0
581 -722 -748 0
-581 722 0
-581 748 0
582 -581 -726 0
-582 581 0
-582 726 0
583 -929 -580 0
-583 929 0
-583 580 0
584 -37 -706 0
-584 37 0
-584 706 0
585 -584 -795 0
-585 584 0
-585 795 0
586 -930 -583 0
-586 930 0
-586 583 0
587 -25 -18 0
-587 25 0
-587 18 0
588 -587 -800 0
-588 587 0
-588 800 0
589 -931 -586 0
-589 931 0
-589 586 0
590 -43 -31 0
-590 43 0
-590 31 0
591 -590 -34 0
-591 590 0
-591 34 0
592 -932 -589 0
-592 932 0
-592 589 0
593 -781 -39 0
-593 781 0
-593 39 0
594 -593 -12 0
-594 593 0
-594 12 0
595 -933 -592 0
-595 933 0
-595 592 0
596 -764 -19 0
-596 764 0
-596 19 0
597 -596 -26 0
-597 596 0
-597 26 0
598 -934 -595 0
-598 934 0
-598 595 0
599 -36 -795 0
-599 36 0
-599 795 0
600 -599 -2 0
-600 599 0
-600 2 0
601 -935 -598 0
-601 935 0
-601 598 0
602 -778 -33 0
-602 778 0
-602 33 0
603 -602 -744 0
-603 602 0
-603 744 0
604 -936 -601 0
-604 936 0
-604 601 0
605 -48 -732 0
-605 48 0
-605 732 0
606 -605 -703 0
-606 605 0
-606 703 0
607 -937 -604 0
-607 937 0
-607 604 0
608 -19 -703 0
-608 19 0
-608 703 0
609 -608 -29 0
-609 608 0
-609 29 0
610 -938 -607 0
-610 938 0
-610 607 0
611 -718 -7 0
-611 718 0
-611 7 0
612 -611 -38 0
-612 611 0
-612 38 0
613 -939 -610 0
-613 939 0
-613 610 0
614 -712 -701 0
-614 712 0
-614 701 0
615 -614 -730 0
-615 614 0
-615 730 0
616 -940 -613 0
-616 940 0
-616 613 0
617 -752 -36 0
-617 752 0
-617 36 0
618 -617 -701 0
-618 617 0
-618 701 0
619 -941 -616 0
-619 941 0
-619 616 0
620 -44 -726 0
-620 44 0
-620 726 0
621 -620 -34 0
-621 620 0
-621 34 0
622 -942 -619 0
-622 942 0
-622 619 0
623 -41 -718 0
-623 41 0
-623 718 0
624 -623 -27 0
-624 623 0
-624 27 0
625 -943 -622 0
-625 943 0
-625 622 0
626 -732 -805 0
-626 732 0
-626 805 0
627 -626 -45 0
-627 626 0
-627 45 0
628 -944 -625 0
-628 944 0
-628 625 0
629 -766 -17 0
-629 766 0
-629 17 0
630 -629 -12 0
-630 629 0
-630 12 0
631 -945 -628 0
-631 945 0
-631 628 0
632 -38 -10 0
-632 38 0
-632 10 0
633 -632 -741 0
-633 632 0
-633 741 0
634 -946 -631 0
-634 946 0
-634 631 0
635 -48 -746 0
-635 48 0
-635 746 0
636 -635 -770 0
-636 635 0
-636 770 0
637 -947 -634 0
-637 947 0
-637 634 0
638 -735 -740 0
-638 735 0
-638 740 0
639 -638 -710 0
-639 638 0
-639 710 0
640 -948 -637 0
-640 948 0
-640 637 0
641 -720 -18 0
-641 720 0
-641 18 0
642 -641 -31 0
-642 641 0
-642 31 0
643 -949 -640 0
-643 949 0
-643 640 0
644 -50 -713 0
-644 50 0
-644 713 0
645 -644 -46 0
-645 644 0
-645 46 0
646 -950 -643 0
-646 950 0
-646 643 0
647 -43 -40 0
-647 43 0
-647 40 0
648 -647 -784 0
-648 647 0
-648 784 0
649 -951 -646 0
-649 951 0
-649 646 0
650 -44 -715 0
-650 44 0
-650 715 0
651 -650 -15 0
-651 650 0
-651 15 0
652 -952 -649 0
-652 952 0
-652 649 0
653 -47 -7 0
-653 47 0
-653 7 0
654 -653 -710 0
-654 653 0
-654 710 0
655 -953 -652 0
-655 953 0
-655 652 0
656 -770 -724 0
-656 770 0
-656 724 0
657 -656 -744 0
-657 656 0
-657 744 0
658 -954 -655 0
-658 954 0
-658 655 0
659 -25 -706 0
-659 25 0
-659 706 0
660 -659 -707 0
-660 659 0
-660 707 0
661 -955 -658 0
-661 955 0
-661 658 0
662 -49 -11 0
-662 49 0
-662 11 0
663 -662 -26 0
-663 662 0
-663 26 0
664 -956 -661 0
-664 956 0
-664 661 0
665 -792 -761 0
-665 792 0
-665 761 0
666 -665 -769 0
-666 665 0
-666 769 0
667 -957 -664 0
-667 957 0
-667 664 0
668 -755 -795 0
-668 755 0
-668 795 0
669 -668 -726 0
-669 668 0
-669 726 0
670 -958 -667 0
-670 958 0
-670 667 0
671 -766 -18 0
-671 766 0
-671 18 0
672 -671 -744 0
-672 671 0
-672 744 0
673 -959 -670 0
-673 959 0
-673 670 0
674 -776 -710 0
-674 776 0
-674 710 0
675 -674 -744 0
-675 674 0
-675 744 0
676 -960 -673 0
-676 960 0
-676 673 0
677 -38 -31 0
-677 38 0
-677 31 0
678 -677 -26 0
-678 677 0
-678 26 0
679 -961 -676 0
-679 961 0
-679 676 0
680 -48 -21 0
-680 48 0
-680 21 0
681 -680 -726 0
-681 680 0
-681 726 0
682 -962 -679 0
-682 962 0
-682 679 0
683 -30 -10 0
-683 30 0
-683 10 0
684 -683 -712 0
-684 683 0
-684 712 0
685 -963 -682 0
-685 963 0
-685 682 0
686 -39 -33 0
-686 39 0
-686 33 0
687 -686 -6 0
-687 686 0
-687 6 0
688 -964 -685 0
-688 964 0
-688 685 0
689 -784 -39 0
-689 784 0
-689 39 0
690 -689 -38 0
-690 689 0
-690 38 0
691 -965 -688 0
-691 965 0
-691 688 0
692 -769 -712 0
-692 769 0
-692 712 0
693 -692 -713 0
-693 692 0
-693 713 0
694 -966 -691 0
-694 966 0
-694 691 0
695 -18 -713 0
-695 18 0
-695 713 0
696 -695 -23 0
-696 695 0
-696 23 0
697 -967 -694 0
-697 967 0
-697 694 0
698 -16 -6 0
-698 16 0
-698 6 0
699 -698 -776 0
-699 698 0
-699 776 0
700 -968 -697 0
-700 968 0
-700 697 0
-701 -2 0
701 2 0
-702 -5 0
702 5 0
-703 -6 0
703 6 0
-704 -54 0
704 54 0
-705 -52 0
705 52 0
-706 -8 0
706 8 0
-707 -9 0
707 9 0
-708 -57 0
708 57 0
-709 -11 0
709 11 0
-710 -12 0
710 12 0
-711 -60 0
711 60 0
-712 -14 0
712 14 0
-713 -15 0
713 15 0
-714 -63 0
714 63 0
-715 -17 0
715 17 0
-716 -66 0
716 66 0
-717 -69 0
717 69 0
-718 -20 0
718 20 0
-719 -72 0
719 72 0
-720 -23 0
720 23 0
-721 -75 0
721 75 0
-722 -25 0
722 25 0
-723 -78 0
723 78 0
-724 -16 0
724 16 0
-725 -81 0
725 81 0
-726 -27 0
726 27 0
-727 -84 0
727 84 0
-728 -87 0
728 87 0
-729 -24 0
729 24 0
-730 -29 0
730 29 0
-731 -90 0
731 90 0
-732 -10 0
732 10 0
-733 -93 0
733 93 0
-734 -96 0
734 96 0
-735 -32 0
735 32 0
-736 -99 0
736 99 0
-737 -33 0
737 33 0
-738 -34 0
738 34 0
-739 -102 0
739 102 0
-740 -19 0
740 19 0
-741 -28 0
741 28 0
-742 -105 0
742 105 0
-743 -108 0
743 108 0
-744 -21 0
744 21 0
-745 -111 0
745 111 0
-746 -37 0
746 37 0
-747 -114 0
747 114 0
-748 -18 0
748 18 0
-749 -38 0
749 38 0
-750 -117 0
750 117 0
-751 -120 0
751 120 0
-752 -39 0
752 39 0
-753 -123 0
753 123 0
-754 -7 0
754 7 0
-755 -31 0
755 31 0
-756 -126 0
756 126 0
-757 -1 0
757 1 0
-758 -129 0
758 129 0
-759 -132 0
759 132 0
-760 -135 0
760 135 0
-761 -36 0
761 36 0
-762 -138 0
762 138 0
-763 -141 0
763 141 0
-764 -35 0
764 35 0
-765 -144 0
765 144 0
-766 -43 0
766 43 0
-767 -13 0
767 13 0
-768 -147 0
768 147 0
-769 -42 0
769 42 0
-770 -44 0
770 44 0
-771 -150 0
771 150 0
-772 -153 0
772 153 0
-773 -156 0
773 156 0
-774 -159 0
774 159 0
-775 -162 0
775 162 0
-776 -26 0
776 26 0
-777 -165 0
777 165 0
-778 -45 0
778 45 0
-779 -168 0
779 168 0
-780 -171 0
780 171 0
-781 -41 0
781 41 0
-782 -46 0
782 46 0
-783 -174 0
783 174 0
-784 -47 0
784 47 0
-785 -177 0
785 177 0
-786 -180 0
786 180 0
-787 -183 0
787 183 0
-788 -186 0
788 186 0
-789 -189 0
789 189 0
-790 -40 0
790 40 0
-791 -192 0
791 192 0
-792 -48 0
792 48 0
-793 -195 0
793 195 0
-794 -198 0
794 198 0
-795 -22 0
795 22 0
-796 -201 0
796 201 0
-797 -204 0
797 204 0
-798 -207 0
798 207 0
-799 -210 0
799 210 0
-800 -3 0
800 3 0
-801 -213 0
801 213 0
-802 -216 0
802 216 0
-803 -219 0
803 219 0
-804 -222 0
804 222 0
-805 -4 0
805 4 0
-806 -30 0
806 30 0
-807 -225 0
807 225 0
-808 -228 0
808 228 0
-809 -231 0
809 231 0
-810 -234 0
810 234 0
-811 -237 0
811 237 0
-812 -240 0
812 240 0
-813 -243 0
813 243 0
-814 -246 0
814 246 0
-815 -249 0
815 249 0
-816 -252 0
816 252 0
-817 -255 0
817 255 0
-818 -258 0
818 258 0
-819 -261 0
819 261 0
-820 -264 0
820 264 0
-821 -267 0
821 267 0
-822 -270 0
822 270 0
-823 -273 0
823 273 0
-824 -276 0
824 276 0
-825 -49 0
825 49 0
-826 -279 0
826 279 0
-827 -50 0
827 50 0
-828 -282 0
828 282 0
-829 -285 0
829 285 0
-830 -288 0
830 288 0
-831 -291 0
831 291 0
-832 -294 0
832 294 0
-833 -297 0
833 297 0
-834 -300 0
834 300 0
-835 -303 0
835 303 0
-836 -306 0
836 306 0
-837 -309 0
837 309 0
-838 -312 0
838 312 0
-839 -315 0
839 315 0
-840 -318 0
840 318 0
-841 -321 0
841 321 0
-842 -324 0
842 324 0
-843 -327 0
843 327 0
-844 -330 0
844 330 0
-845 -333 0
845 333 0
-846 -336 0
846 336 0
-847 -339 0
847 339 0
-848 -342 0
848 342 0
-849 -345 0
849 345 0
-850 -348 0
850 348 0
-851 -351 0
851 351 0
-852 -354 0
852 354 0
-853 -357 0
853 357 0
-854 -360 0
854 360 0
-855 -363 0
855 363 0
-856 -366 0
856 366 0
-857 -369 0
857 369 0
-858 -372 0
858 372 0
-859 -375 0
859 375 0
-860 -378 0
860 378 0
-861 -381 0
861 381 0
-862 -384 0
862 384 0
-863 -387 0
863 387 0
-864 -390 0
864 390 0
-865 -393 0
865 393 0
-866 -396 0
866 396 0
-867 -399 0
867 399 0
-868 -402 0
868 402 0
-869 -405 0
869 405 0
-870 -408 0
870 408 0
-871 -411 0
871 411 0
-872 -414 0
872 414 0
-873 -417 0
873 417 0
-874 -420 0
874 420 0
-875 -423 0
875 423 0
-876 -426 0
876 426 0
-877 -429 0
877 429 0
-878 -432 0
878 432 0
-879 -435 0
879 435 0
-880 -438 0
880 438 0
-881 -441 0
881 441 0
-882 -444 0
882 444 0
-883 -447 0
883 447 0
-884 -450 0
884 450 0
-885 -453 0
885 453 0
-886 -456 0
886 456 0
-887 -459 0
887 459 0
-888 -462 0
888 462 0
-889 -465 0
889 465 0
-890 -468 0
890 468 0
-891 -470 0
891 470 0
-892 -473 0
892 473 0
-893 -475 0
893 475 0
-894 -478 0
894 478 0
-895 -481 0
895 481 0
-896 -484 0
896 484 0
-897 -487 0
897 487 0
-898 -490 0
898 490 0
-899 -493 0
899 493 0
-900 -496 0
900 496 0
-901 -499 0
901 499 0
-902 -502 0
902 502 0
-903 -505 0
903 505 0
-904 -508 0
904 508 0
-905 -511 0
905 511 0
-906 -514 0
906 514 0
-907 -517 0
907 517 0
-908 -520 0
908 520 0
-909 -523 0
909 523 0
-910 -526 0
910 526 0
-911 -529 0
911 529 0
-912 -532 0
912 532 0
-913 -535 0
913 535 0
-914 -538 0
914 538 0
-915 -541 0
915 541 0
-916 -544 0
916 544 0
-917 -547 0
917 547 0
-918 -550 0
918 550 0
-919 -553 0
919 553 0
-920 -556 0
920 556 0
-921 -559 0
921 559 0
-922 -562 0
922 562 0
-923 -564 0
923 564 0
-924 -567 0
924 567 0
-925 -570 0
925 570 0
-926 -573 0
926 573 0
-927 -576 0
927 576 0
-928 -579 0
928 579 0
-929 -582 0
929 582 0
-930 -585 0
930 585 0
-931 -588 0
931 588 0
-932 -591 0
932 591 0
-933 -594 0
933 594 0
-934 -597 0
934 597 0
-935 -600 0
935 600 0
-936 -603 0
936 603 0
-937 -606 0
937 606 0
-938 -609 0
938 609 0
-939 -612 0
939 612 0
-940 -615 0
940 615 0
-941 -618 0
941 618 0
-942 -621 0
942 621 0
-943 -624 0
943 624 0
-944 -627 0
944 627 0
-945 -630 0
945 630 0
-946 -633 0
946 633 0
-947 -636 0
947 636 0
-948 -639 0
948 639 0
-949 -642 0
949 642 0
-950 -645 0
950 645 0
-951 -648 0
951 648 0
-952 -651 0
952 651 0
-953 -654 0
953 654 0
-954 -657 0
954 657 0
-955 -660 0
955 660 0
-956 -663 0
956 663 0
-957 -666 0
957 666 0
-958 -669 0
958 669 0
-959 -672 0
959 672 0
-960 -675 0
960 675 0
-961 -678 0
961 678 0
-962 -681 0
962 681 0
-963 -684 0
963 684 0
-964 -687 0
964 687 0
-965 -690 0
965 690 0
-966 -693 0
966 693 0
-967 -696 0
967 696 0
-968 -699 0
968 699 0
700 0
